183
0 153 160 148 38 27 142 52 19 158 
169 37 35 81 50 41 80 72 103 109 
161 77 10 143 120 172 115 121 141 6 
123 12 69 58 94 99 14 129 128 97 
159 71 100 79 110 168 165 16 59 88 
164 137 127 125 139 174 22 25 17 126 
56 95 24 105 20 102 63 111 157 8 
145 66 68 136 108 3 4 135 43 90 
53 83 65 93 49 113 15 36 98 33 
112 154 173 2 114 175 150 5 152 21 
30 45 149 34 48 179 96 87 23 130 
39 117 107 44 64 144 70 84 26 122 
75 51 54 162 82 91 92 89 170 166 
132 76 104 118 42 28 11 67 40 151 
47 163 55 116 182 167 177 124 176 32 
13 61 171 29 74 134 178 78 155 7 
62 1 140 156 106 131 9 101 180 18 
147 60 57 46 85 31 181 133 86 146 
73 119 138 
